n=30;
demand=2;
horizon=30;
est=[28,29,2,24,22,0,13,24,20,8,9,29,5,19,3,0,0,26,28,12,11,28,29,16,21,29,7,28,21,13];
processing_time=[2,1,3,1,2,2,9,6,3,19,12,1,19,9,2,11,30,4,1,11,19,1,1,5,6,1,19,2,9,13];
lct=[30,30,17,29,25,19,29,30,23,27,25,30,29,29,6,20,30,30,29,30,30,29,30,21,28,30,29,30,30,26];
